c CNF
c from Selman's wff generator
p cnf 140  1300
1.0 22 41 0
1.0 131 36 0
1.0 -26 -44 0
1.0 124 -8 0
1.0 -63 -34 0
1.0 -37 57 0
1.0 37 122 0
1.0 -129 96 0
1.0 -137 -119 0
1.0 14 125 0
1.0 -29 105 0
1.0 -112 46 0
1.0 80 -90 0
1.0 -7 139 0
1.0 121 -50 0
1.0 -6 2 0
1.0 -120 -54 0
1.0 39 139 0
1.0 -103 -16 0
1.0 -61 -31 0
1.0 -121 -130 0
1.0 128 -101 0
1.0 -11 91 0
1.0 93 -55 0
1.0 108 7 0
1.0 -5 -99 0
1.0 114 11 0
1.0 42 11 0
1.0 140 -10 0
1.0 -110 -41 0
1.0 -131 -32 0
1.0 86 14 0
1.0 20 82 0
1.0 -40 132 0
1.0 2 34 0
1.0 44 81 0
1.0 90 76 0
1.0 116 -126 0
1.0 18 -36 0
1.0 50 66 0
1.0 -8 76 0
1.0 67 85 0
1.0 -118 107 0
1.0 48 -39 0
1.0 114 -96 0
1.0 82 -97 0
1.0 133 106 0
1.0 -32 77 0
1.0 -13 -63 0
1.0 7 -5 0
1.0 112 120 0
1.0 18 -71 0
1.0 -27 -73 0
1.0 30 136 0
1.0 102 -128 0
1.0 64 -33 0
1.0 95 -116 0
1.0 -121 -23 0
1.0 -3 92 0
1.0 23 126 0
1.0 59 -91 0
1.0 -87 83 0
1.0 70 -32 0
1.0 64 71 0
1.0 -47 85 0
1.0 -108 -66 0
1.0 -18 89 0
1.0 -75 -1 0
1.0 -91 106 0
1.0 -48 -49 0
1.0 -80 126 0
1.0 56 -41 0
1.0 -126 -1 0
1.0 66 -107 0
1.0 -55 -52 0
1.0 -52 72 0
1.0 38 -62 0
1.0 111 126 0
1.0 111 34 0
1.0 -75 74 0
1.0 75 -116 0
1.0 -82 -76 0
1.0 -127 66 0
1.0 137 106 0
1.0 -27 -81 0
1.0 67 42 0
1.0 76 100 0
1.0 -34 -50 0
1.0 -25 -84 0
1.0 -19 50 0
1.0 115 -86 0
1.0 51 -86 0
1.0 -27 -125 0
1.0 -27 -121 0
1.0 -81 -52 0
1.0 -101 -43 0
1.0 -127 50 0
1.0 100 -54 0
1.0 140 55 0
1.0 -140 52 0
1.0 -37 62 0
1.0 43 -108 0
1.0 -19 -138 0
1.0 -41 40 0
1.0 89 57 0
1.0 -111 -42 0
1.0 97 -29 0
1.0 -80 -9 0
1.0 71 -101 0
1.0 -69 -65 0
1.0 63 -53 0
1.0 -93 31 0
1.0 -88 21 0
1.0 63 72 0
1.0 -100 49 0
1.0 58 -99 0
1.0 -60 -56 0
1.0 -121 57 0
1.0 110 140 0
1.0 -30 -135 0
1.0 16 -53 0
1.0 -124 -63 0
1.0 -111 74 0
1.0 32 -140 0
1.0 -56 117 0
1.0 -33 14 0
1.0 13 84 0
1.0 78 -27 0
1.0 79 54 0
1.0 116 -128 0
1.0 -61 -130 0
1.0 130 129 0
1.0 -106 -124 0
1.0 137 18 0
1.0 101 65 0
1.0 -92 70 0
1.0 -123 -22 0
1.0 10 -100 0
1.0 89 -17 0
1.0 -6 -68 0
1.0 -51 63 0
1.0 81 110 0
1.0 -34 -106 0
1.0 36 71 0
1.0 -93 -109 0
1.0 69 19 0
1.0 -36 57 0
1.0 124 79 0
1.0 -2 -121 0
1.0 -91 -135 0
1.0 -101 -63 0
1.0 134 -126 0
1.0 95 129 0
1.0 8 82 0
1.0 -138 -136 0
1.0 75 -96 0
1.0 77 95 0
1.0 89 1 0
1.0 64 122 0
1.0 107 58 0
1.0 -47 53 0
1.0 -135 -124 0
1.0 -120 40 0
1.0 -136 -128 0
1.0 -82 7 0
1.0 -7 112 0
1.0 -93 125 0
1.0 -43 -131 0
1.0 43 64 0
1.0 48 99 0
1.0 -139 -2 0
1.0 130 -70 0
1.0 -76 -26 0
1.0 138 -42 0
1.0 27 139 0
1.0 129 19 0
1.0 -21 -68 0
1.0 -97 -128 0
1.0 -69 -112 0
1.0 -38 18 0
1.0 120 17 0
1.0 29 10 0
1.0 18 118 0
1.0 136 48 0
1.0 -116 -18 0
1.0 5 -114 0
1.0 -85 -117 0
1.0 135 -5 0
1.0 -22 106 0
1.0 -116 -45 0
1.0 -22 95 0
1.0 3 -57 0
1.0 74 -31 0
1.0 4 -80 0
1.0 57 83 0
1.0 88 -115 0
1.0 81 23 0
1.0 67 -96 0
1.0 -51 48 0
1.0 104 1 0
1.0 -31 81 0
1.0 -20 -128 0
1.0 -70 51 0
1.0 -26 -15 0
1.0 38 -4 0
1.0 100 70 0
1.0 117 -19 0
1.0 -19 92 0
1.0 -32 93 0
1.0 -81 64 0
1.0 114 -118 0
1.0 -132 12 0
1.0 -16 -126 0
1.0 -56 46 0
1.0 -65 -46 0
1.0 -138 90 0
1.0 -43 -73 0
1.0 -136 -70 0
1.0 -47 19 0
1.0 31 73 0
1.0 59 -62 0
1.0 108 5 0
1.0 -51 120 0
1.0 -70 -105 0
1.0 -37 18 0
1.0 -88 -2 0
1.0 -111 33 0
1.0 -101 43 0
1.0 -64 76 0
1.0 -82 20 0
1.0 -133 -26 0
1.0 -103 134 0
1.0 27 68 0
1.0 -62 -111 0
1.0 107 41 0
1.0 -2 -76 0
1.0 64 -140 0
1.0 -118 81 0
1.0 -71 33 0
1.0 -26 87 0
1.0 -14 -95 0
1.0 66 79 0
1.0 120 -83 0
1.0 19 -114 0
1.0 113 -78 0
1.0 -18 -100 0
1.0 -132 60 0
1.0 7 73 0
1.0 -28 -10 0
1.0 -88 125 0
1.0 68 -26 0
1.0 139 -107 0
1.0 45 51 0
1.0 11 17 0
1.0 77 -133 0
1.0 -66 -89 0
1.0 98 58 0
1.0 -42 -31 0
1.0 56 21 0
1.0 128 82 0
1.0 -133 89 0
1.0 105 -5 0
1.0 24 -123 0
1.0 85 116 0
1.0 22 115 0
1.0 -87 -14 0
1.0 -69 23 0
1.0 49 -127 0
1.0 -81 6 0
1.0 11 2 0
1.0 125 24 0
1.0 -140 75 0
1.0 -49 -116 0
1.0 -129 41 0
1.0 63 -59 0
1.0 -46 -71 0
1.0 76 -70 0
1.0 -71 32 0
1.0 -56 126 0
1.0 -61 -56 0
1.0 -32 8 0
1.0 -49 -69 0
1.0 -127 4 0
1.0 74 51 0
1.0 -120 50 0
1.0 -82 -77 0
1.0 63 -91 0
1.0 -7 127 0
1.0 135 57 0
1.0 125 -135 0
1.0 139 -97 0
1.0 -8 -24 0
1.0 73 39 0
1.0 116 5 0
1.0 96 -62 0
1.0 49 114 0
1.0 -30 59 0
1.0 -53 99 0
1.0 -55 132 0
1.0 15 -67 0
1.0 -105 -87 0
1.0 -91 113 0
1.0 35 -140 0
1.0 -113 8 0
1.0 66 -70 0
1.0 28 -5 0
1.0 136 14 0
1.0 -80 54 0
1.0 -140 -61 0
1.0 -33 103 0
1.0 102 -4 0
1.0 -12 -135 0
1.0 64 -94 0
1.0 99 -86 0
1.0 -99 38 0
1.0 -92 -64 0
1.0 124 68 0
1.0 -31 -38 0
1.0 41 94 0
1.0 -88 4 0
1.0 -97 44 0
1.0 129 -136 0
1.0 -34 -114 0
1.0 -37 70 0
1.0 138 117 0
1.0 14 120 0
1.0 -74 87 0
1.0 90 95 0
1.0 -139 -134 0
1.0 -130 111 0
1.0 84 -62 0
1.0 132 -84 0
1.0 61 -37 0
1.0 -17 -38 0
1.0 -124 -95 0
1.0 -50 3 0
1.0 136 -81 0
1.0 52 -110 0
1.0 -32 17 0
1.0 100 116 0
1.0 -13 30 0
1.0 -67 83 0
1.0 -38 -90 0
1.0 -92 -103 0
1.0 -44 -29 0
1.0 -139 82 0
1.0 98 65 0
1.0 -41 65 0
1.0 -94 31 0
1.0 -114 61 0
1.0 -10 -53 0
1.0 16 93 0
1.0 -122 13 0
1.0 102 10 0
1.0 62 -77 0
1.0 -14 120 0
1.0 61 -101 0
1.0 -31 -30 0
1.0 -128 -93 0
1.0 1 -17 0
1.0 30 -43 0
1.0 52 -64 0
1.0 -140 85 0
1.0 64 -41 0
1.0 -1 75 0
1.0 -104 -97 0
1.0 49 73 0
1.0 90 -95 0
1.0 -137 76 0
1.0 140 -129 0
1.0 74 -122 0
1.0 -22 70 0
1.0 5 -88 0
1.0 45 -27 0
1.0 99 92 0
1.0 46 35 0
1.0 -111 -138 0
1.0 -127 112 0
1.0 93 -123 0
1.0 -53 39 0
1.0 127 49 0
1.0 -75 84 0
1.0 -36 -128 0
1.0 -23 -109 0
1.0 -107 -73 0
1.0 45 -74 0
1.0 -56 -69 0
1.0 -108 24 0
1.0 -48 -125 0
1.0 109 -124 0
1.0 -65 109 0
1.0 -92 112 0
1.0 75 92 0
1.0 104 66 0
1.0 -37 31 0
1.0 55 -94 0
1.0 -78 110 0
1.0 94 121 0
1.0 89 121 0
1.0 92 51 0
1.0 2 -133 0
1.0 -58 -96 0
1.0 -127 137 0
1.0 90 118 0
1.0 -87 97 0
1.0 78 76 0
1.0 57 109 0
1.0 19 131 0
1.0 -124 67 0
1.0 -22 123 0
1.0 120 94 0
1.0 -71 52 0
1.0 9 -30 0
1.0 -106 115 0
1.0 84 -40 0
1.0 -31 62 0
1.0 128 108 0
1.0 91 51 0
1.0 -5 -67 0
1.0 -119 -94 0
1.0 -124 -10 0
1.0 -125 46 0
1.0 86 -138 0
1.0 -60 12 0
1.0 120 47 0
1.0 -97 -75 0
1.0 2 -137 0
1.0 -91 -128 0
1.0 138 -39 0
1.0 85 131 0
1.0 129 78 0
1.0 -90 138 0
1.0 -44 13 0
1.0 -87 -138 0
1.0 134 -138 0
1.0 126 -33 0
1.0 -72 39 0
1.0 30 12 0
1.0 90 52 0
1.0 -49 -22 0
1.0 -34 -108 0
1.0 105 -55 0
1.0 52 136 0
1.0 28 -58 0
1.0 -97 -123 0
1.0 135 -20 0
1.0 -71 -70 0
1.0 -91 -92 0
1.0 -59 25 0
1.0 -79 -34 0
1.0 29 23 0
1.0 80 47 0
1.0 30 130 0
1.0 -9 -25 0
1.0 95 90 0
1.0 42 -131 0
1.0 -16 -134 0
1.0 -27 105 0
1.0 -127 113 0
1.0 -19 128 0
1.0 -117 -125 0
1.0 10 -38 0
1.0 128 124 0
1.0 -115 -38 0
1.0 -31 114 0
1.0 -79 29 0
1.0 -1 86 0
1.0 73 96 0
1.0 80 -138 0
1.0 36 100 0
1.0 84 61 0
1.0 99 -43 0
1.0 16 -132 0
1.0 20 21 0
1.0 106 12 0
1.0 -108 107 0
1.0 -105 -122 0
1.0 82 49 0
1.0 -110 75 0
1.0 117 -132 0
1.0 -124 105 0
1.0 125 -107 0
1.0 -119 -63 0
1.0 -29 -74 0
1.0 -56 -129 0
1.0 38 15 0
1.0 -90 107 0
1.0 99 -133 0
1.0 -97 -6 0
1.0 112 -109 0
1.0 31 18 0
1.0 92 28 0
1.0 17 45 0
1.0 60 27 0
1.0 -134 -138 0
1.0 130 -134 0
1.0 140 -118 0
1.0 86 -58 0
1.0 76 97 0
1.0 125 88 0
1.0 133 38 0
1.0 65 117 0
1.0 114 -136 0
1.0 130 -42 0
1.0 -20 -78 0
1.0 -136 -20 0
1.0 -116 -117 0
1.0 -65 131 0
1.0 -29 -16 0
1.0 132 -29 0
1.0 24 20 0
1.0 62 -120 0
1.0 58 101 0
1.0 -120 -127 0
1.0 104 81 0
1.0 -72 -17 0
1.0 32 52 0
1.0 -81 -64 0
1.0 -84 59 0
1.0 -39 -119 0
1.0 79 132 0
1.0 118 -133 0
1.0 -74 70 0
1.0 -86 -53 0
1.0 105 18 0
1.0 82 131 0
1.0 49 -127 0
1.0 105 116 0
1.0 -107 -54 0
1.0 46 -116 0
1.0 -46 -134 0
1.0 -47 90 0
1.0 107 110 0
1.0 -100 65 0
1.0 -51 104 0
1.0 79 140 0
1.0 -54 -20 0
1.0 -136 15 0
1.0 8 63 0
1.0 12 -1 0
1.0 111 120 0
1.0 -44 -101 0
1.0 -65 34 0
1.0 34 -27 0
1.0 46 38 0
1.0 -52 124 0
1.0 -47 114 0
1.0 115 -39 0
1.0 19 63 0
1.0 24 -92 0
1.0 126 91 0
1.0 140 107 0
1.0 -13 -99 0
1.0 41 9 0
1.0 -122 101 0
1.0 137 73 0
1.0 -87 102 0
1.0 118 -31 0
1.0 -122 -44 0
1.0 11 33 0
1.0 131 106 0
1.0 114 -62 0
1.0 -22 34 0
1.0 -106 15 0
1.0 -116 -20 0
1.0 50 114 0
1.0 18 30 0
1.0 62 29 0
1.0 -134 -70 0
1.0 132 129 0
1.0 22 -38 0
1.0 53 109 0
1.0 -128 129 0
1.0 103 -37 0
1.0 67 -81 0
1.0 109 -59 0
1.0 129 -125 0
1.0 -113 -131 0
1.0 -29 -25 0
1.0 -133 -21 0
1.0 10 -90 0
1.0 -127 87 0
1.0 28 -101 0
1.0 -20 82 0
1.0 -66 26 0
1.0 17 122 0
1.0 -7 -15 0
1.0 -35 96 0
1.0 46 139 0
1.0 -86 -109 0
1.0 -69 -125 0
1.0 -67 -65 0
1.0 91 -85 0
1.0 66 -65 0
1.0 -79 -140 0
1.0 96 52 0
1.0 50 -33 0
1.0 -2 117 0
1.0 102 75 0
1.0 140 -114 0
1.0 59 -52 0
1.0 116 72 0
1.0 71 128 0
1.0 39 -45 0
1.0 -78 -59 0
1.0 35 -51 0
1.0 126 -26 0
1.0 -140 44 0
1.0 95 -134 0
1.0 -65 -98 0
1.0 86 -12 0
1.0 -57 -49 0
1.0 -108 17 0
1.0 -67 81 0
1.0 107 -23 0
1.0 66 113 0
1.0 -106 66 0
1.0 24 -76 0
1.0 -87 49 0
1.0 -97 26 0
1.0 42 -70 0
1.0 11 -65 0
1.0 -87 57 0
1.0 29 -107 0
1.0 33 124 0
1.0 60 52 0
1.0 100 118 0
1.0 -3 7 0
1.0 76 -47 0
1.0 112 33 0
1.0 90 -5 0
1.0 -112 103 0
1.0 87 139 0
1.0 50 85 0
1.0 62 21 0
1.0 -27 -47 0
1.0 94 122 0
1.0 -15 -110 0
1.0 -115 -52 0
1.0 -15 -57 0
1.0 -55 -10 0
1.0 -95 119 0
1.0 -140 41 0
1.0 -88 51 0
1.0 -33 36 0
1.0 6 -87 0
1.0 139 95 0
1.0 -11 16 0
1.0 26 -82 0
1.0 -61 4 0
1.0 -45 -78 0
1.0 129 75 0
1.0 111 -137 0
1.0 -84 -79 0
1.0 -33 22 0
1.0 -37 70 0
1.0 12 -138 0
1.0 -2 39 0
1.0 117 -79 0
1.0 -14 -69 0
1.0 -66 52 0
1.0 -131 55 0
1.0 76 -46 0
1.0 116 -34 0
1.0 31 76 0
1.0 -115 -52 0
1.0 131 115 0
1.0 -44 -40 0
1.0 -92 -86 0
1.0 -1 -68 0
1.0 113 -30 0
1.0 -63 -82 0
1.0 -18 -134 0
1.0 -46 64 0
1.0 39 -137 0
1.0 37 -27 0
1.0 -112 -29 0
1.0 96 35 0
1.0 65 -95 0
1.0 -37 91 0
1.0 85 -68 0
1.0 131 127 0
1.0 -124 67 0
1.0 93 22 0
1.0 50 80 0
1.0 -115 84 0
1.0 38 -91 0
1.0 -42 -109 0
1.0 -36 33 0
1.0 20 4 0
1.0 70 26 0
1.0 -48 -33 0
1.0 -112 -122 0
1.0 -65 -37 0
1.0 127 12 0
1.0 120 25 0
1.0 57 -132 0
1.0 -135 97 0
1.0 -122 103 0
1.0 -136 -32 0
1.0 13 -89 0
1.0 126 -37 0
1.0 49 76 0
1.0 100 15 0
1.0 -6 86 0
1.0 42 33 0
1.0 136 -10 0
1.0 -41 39 0
1.0 -127 -9 0
1.0 -46 -30 0
1.0 -106 84 0
1.0 -99 -26 0
1.0 -111 36 0
1.0 68 28 0
1.0 38 -88 0
1.0 -126 -10 0
1.0 -18 123 0
1.0 13 -29 0
1.0 113 -140 0
1.0 25 -126 0
1.0 22 -139 0
1.0 27 43 0
1.0 131 -64 0
1.0 -73 -136 0
1.0 118 -34 0
1.0 -63 32 0
1.0 -31 12 0
1.0 138 2 0
1.0 -1 59 0
1.0 -102 -119 0
1.0 42 -95 0
1.0 90 17 0
1.0 51 -81 0
1.0 112 26 0
1.0 37 115 0
1.0 117 -110 0
1.0 28 -20 0
1.0 -139 96 0
1.0 51 8 0
1.0 24 -81 0
1.0 21 -126 0
1.0 -12 56 0
1.0 -31 54 0
1.0 -23 136 0
1.0 15 128 0
1.0 84 -118 0
1.0 -126 69 0
1.0 -10 64 0
1.0 50 130 0
1.0 -46 -18 0
1.0 -71 -52 0
1.0 47 66 0
1.0 -54 -41 0
1.0 -19 128 0
1.0 56 128 0
1.0 -51 -96 0
1.0 86 -119 0
1.0 137 131 0
1.0 42 -8 0
1.0 74 -23 0
1.0 -64 -83 0
1.0 -71 -116 0
1.0 103 99 0
1.0 -54 -7 0
1.0 -125 -136 0
1.0 126 56 0
1.0 -63 -69 0
1.0 -91 123 0
1.0 -66 -107 0
1.0 -83 41 0
1.0 140 33 0
1.0 39 33 0
1.0 28 41 0
1.0 96 54 0
1.0 122 -15 0
1.0 -137 139 0
1.0 106 42 0
1.0 -83 -38 0
1.0 -71 -11 0
1.0 -44 -46 0
1.0 -87 138 0
1.0 52 125 0
1.0 -139 -77 0
1.0 75 52 0
1.0 -93 114 0
1.0 -12 -40 0
1.0 51 -112 0
1.0 18 -45 0
1.0 43 -109 0
1.0 -93 -69 0
1.0 -5 -91 0
1.0 -3 -4 0
1.0 -118 -66 0
1.0 -106 109 0
1.0 -80 -123 0
1.0 27 133 0
1.0 102 69 0
1.0 137 8 0
1.0 -99 -92 0
1.0 95 -60 0
1.0 126 -47 0
1.0 -16 -133 0
1.0 116 75 0
1.0 -68 115 0
1.0 -43 93 0
1.0 100 88 0
1.0 40 -121 0
1.0 41 76 0
1.0 -123 -128 0
1.0 -121 -82 0
1.0 -17 -5 0
1.0 -119 28 0
1.0 120 -57 0
1.0 -5 101 0
1.0 82 -17 0
1.0 93 -104 0
1.0 -91 -124 0
1.0 65 -25 0
1.0 30 123 0
1.0 10 -140 0
1.0 56 90 0
1.0 -51 -66 0
1.0 -83 1 0
1.0 -105 122 0
1.0 -105 41 0
1.0 -66 -12 0
1.0 -135 137 0
1.0 -136 132 0
1.0 -81 -61 0
1.0 -127 75 0
1.0 -76 99 0
1.0 -80 72 0
1.0 -113 81 0
1.0 -92 -45 0
1.0 -42 94 0
1.0 -85 84 0
1.0 5 -61 0
1.0 136 -1 0
1.0 -99 22 0
1.0 -94 65 0
1.0 -5 -18 0
1.0 62 -95 0
1.0 49 -134 0
1.0 77 -91 0
1.0 -12 36 0
1.0 -36 -130 0
1.0 11 -48 0
1.0 113 -117 0
1.0 -134 133 0
1.0 87 -117 0
1.0 -111 21 0
1.0 -111 -6 0
1.0 -42 -58 0
1.0 -47 67 0
1.0 115 -106 0
1.0 82 -51 0
1.0 -43 -139 0
1.0 -116 -10 0
1.0 -30 113 0
1.0 -118 119 0
1.0 -37 -111 0
1.0 38 28 0
1.0 -133 -23 0
1.0 74 -23 0
1.0 -22 -140 0
1.0 -9 91 0
1.0 63 76 0
1.0 55 -21 0
1.0 132 16 0
1.0 44 35 0
1.0 -58 -139 0
1.0 -22 121 0
1.0 120 -74 0
1.0 25 -124 0
1.0 -59 -65 0
1.0 86 -48 0
1.0 -64 -98 0
1.0 133 7 0
1.0 5 116 0
1.0 96 -9 0
1.0 83 -110 0
1.0 93 90 0
1.0 -14 -42 0
1.0 90 49 0
1.0 -7 -3 0
1.0 9 124 0
1.0 99 90 0
1.0 -99 108 0
1.0 77 53 0
1.0 2 63 0
1.0 -105 27 0
1.0 76 -11 0
1.0 -13 47 0
1.0 30 -129 0
1.0 78 72 0
1.0 -40 -33 0
1.0 85 -87 0
1.0 -9 -48 0
1.0 75 -28 0
1.0 -94 -91 0
1.0 31 118 0
1.0 -11 -19 0
1.0 -62 -133 0
1.0 71 99 0
1.0 105 125 0
1.0 -86 139 0
1.0 -26 -97 0
1.0 -47 -63 0
1.0 -41 10 0
1.0 -29 -51 0
1.0 44 -116 0
1.0 -75 84 0
1.0 68 16 0
1.0 14 139 0
1.0 95 140 0
1.0 -63 -139 0
1.0 8 33 0
1.0 -84 -7 0
1.0 -123 31 0
1.0 -114 91 0
1.0 106 -7 0
1.0 6 -89 0
1.0 -89 37 0
1.0 -36 40 0
1.0 -72 127 0
1.0 134 -64 0
1.0 95 103 0
1.0 -53 127 0
1.0 -134 -24 0
1.0 -113 15 0
1.0 -52 -61 0
1.0 -101 46 0
1.0 32 68 0
1.0 132 -50 0
1.0 13 32 0
1.0 -19 122 0
1.0 6 -80 0
1.0 95 112 0
1.0 -33 -111 0
1.0 16 83 0
1.0 -11 73 0
1.0 -122 -73 0
1.0 105 -101 0
1.0 -82 -2 0
1.0 82 8 0
1.0 119 104 0
1.0 74 -136 0
1.0 -79 -29 0
1.0 -101 -70 0
1.0 -2 -38 0
1.0 -138 -135 0
1.0 136 -85 0
1.0 -93 -92 0
1.0 -56 -16 0
1.0 -11 -86 0
1.0 114 -76 0
1.0 5 128 0
1.0 -26 92 0
1.0 -86 -62 0
1.0 6 -131 0
1.0 82 -132 0
1.0 -7 111 0
1.0 -56 65 0
1.0 -1 4 0
1.0 132 119 0
1.0 70 124 0
1.0 -45 4 0
1.0 134 -116 0
1.0 -107 -38 0
1.0 -8 59 0
1.0 -124 -97 0
1.0 -101 -55 0
1.0 -33 -1 0
1.0 -124 10 0
1.0 -13 74 0
1.0 -49 88 0
1.0 -125 -14 0
1.0 73 119 0
1.0 76 8 0
1.0 -63 -30 0
1.0 30 98 0
1.0 107 -34 0
1.0 -108 122 0
1.0 70 66 0
1.0 79 21 0
1.0 140 -103 0
1.0 -111 107 0
1.0 -137 101 0
1.0 58 44 0
1.0 78 83 0
1.0 65 -129 0
1.0 54 -95 0
1.0 115 -96 0
1.0 59 70 0
1.0 37 21 0
1.0 121 48 0
1.0 92 100 0
1.0 -42 -67 0
1.0 -55 -138 0
1.0 -92 9 0
1.0 104 41 0
1.0 -90 -51 0
1.0 -112 104 0
1.0 -23 -130 0
1.0 53 -1 0
1.0 76 -130 0
1.0 90 -2 0
1.0 103 91 0
1.0 -131 -84 0
1.0 134 -30 0
1.0 -133 1 0
1.0 -131 95 0
1.0 95 22 0
1.0 -12 -56 0
1.0 58 127 0
1.0 -77 120 0
1.0 63 44 0
1.0 74 57 0
1.0 -58 5 0
1.0 -99 80 0
1.0 -102 -112 0
1.0 -27 -47 0
1.0 -34 -132 0
1.0 112 49 0
1.0 -93 45 0
1.0 -102 111 0
1.0 116 -34 0
1.0 -114 -17 0
1.0 129 72 0
1.0 -119 120 0
1.0 -111 -63 0
1.0 -112 19 0
1.0 -63 67 0
1.0 37 41 0
1.0 -75 109 0
1.0 -126 -75 0
1.0 -6 -30 0
1.0 -9 -89 0
1.0 12 -116 0
1.0 135 38 0
1.0 -104 136 0
1.0 37 -122 0
1.0 91 -100 0
1.0 34 2 0
1.0 31 39 0
1.0 128 -18 0
1.0 -134 -81 0
1.0 119 -30 0
1.0 -26 124 0
1.0 106 96 0
1.0 -56 -52 0
1.0 -53 -42 0
1.0 -81 10 0
1.0 28 2 0
1.0 82 51 0
1.0 81 -52 0
1.0 35 85 0
1.0 41 -60 0
1.0 111 48 0
1.0 -89 32 0
1.0 -42 89 0
1.0 -90 24 0
1.0 -75 97 0
1.0 -8 93 0
1.0 38 -8 0
1.0 67 99 0
1.0 6 -78 0
1.0 -110 27 0
1.0 -116 78 0
1.0 -102 28 0
1.0 124 -47 0
1.0 140 33 0
1.0 -41 -77 0
1.0 35 9 0
1.0 -87 65 0
1.0 92 116 0
1.0 -54 5 0
1.0 32 87 0
1.0 134 -105 0
1.0 137 41 0
1.0 118 4 0
1.0 13 -8 0
1.0 73 46 0
1.0 -22 -79 0
1.0 -84 -83 0
1.0 -29 2 0
1.0 107 -138 0
1.0 -39 44 0
1.0 48 4 0
1.0 12 -81 0
1.0 -126 31 0
1.0 -110 60 0
1.0 2 32 0
1.0 34 -19 0
1.0 -17 67 0
1.0 -111 102 0
1.0 -105 -100 0
1.0 40 94 0
1.0 125 -29 0
1.0 88 -114 0
1.0 -6 35 0
1.0 54 32 0
1.0 -99 1 0
1.0 -102 57 0
1.0 16 23 0
1.0 -117 -103 0
1.0 131 -112 0
1.0 86 -62 0
1.0 -97 6 0
1.0 -38 -28 0
1.0 28 -64 0
1.0 120 -12 0
1.0 34 98 0
1.0 -60 130 0
1.0 -102 27 0
1.0 -88 14 0
1.0 20 127 0
1.0 14 133 0
1.0 56 120 0
1.0 131 85 0
1.0 43 -80 0
1.0 69 6 0
1.0 -32 -140 0
1.0 13 74 0
1.0 -60 -77 0
1.0 -69 -5 0
1.0 124 -3 0
1.0 -88 -50 0
1.0 -130 33 0
1.0 -39 -105 0
1.0 104 -25 0
1.0 98 73 0
1.0 -9 -100 0
1.0 104 -64 0
1.0 66 81 0
1.0 130 -59 0
1.0 92 -96 0
1.0 61 126 0
1.0 10 -110 0
1.0 -42 11 0
1.0 -110 -75 0
1.0 138 49 0
1.0 -130 -81 0
1.0 -140 -80 0
1.0 -36 -136 0
1.0 -121 -2 0
1.0 -111 122 0
1.0 132 -82 0
1.0 16 51 0
1.0 -100 -55 0
1.0 136 -13 0
1.0 -93 -27 0
1.0 -22 28 0
1.0 -30 66 0
1.0 48 90 0
1.0 31 76 0
1.0 127 -35 0
1.0 90 -137 0
1.0 -10 -105 0
1.0 -131 27 0
1.0 55 -36 0
1.0 -101 8 0
1.0 97 -98 0
1.0 34 48 0
1.0 -82 95 0
1.0 -92 -3 0
1.0 107 -57 0
1.0 -84 -13 0
1.0 -49 126 0
1.0 133 -27 0
1.0 -124 65 0
1.0 112 111 0
1.0 -66 4 0
1.0 -7 -62 0
1.0 -118 40 0
1.0 53 -42 0
1.0 -27 2 0
1.0 -28 128 0
1.0 52 45 0
1.0 -15 -65 0
1.0 -69 -21 0
1.0 82 73 0
1.0 -112 119 0
1.0 -20 39 0
1.0 41 95 0
1.0 -82 -34 0
1.0 78 -109 0
1.0 34 -90 0
1.0 110 128 0
1.0 -60 84 0
1.0 63 -90 0
1.0 -129 40 0
1.0 -134 -55 0
1.0 89 38 0
1.0 -6 82 0
1.0 32 11 0
1.0 139 37 0
1.0 -121 23 0
1.0 -112 -5 0
1.0 -45 115 0
1.0 -29 -87 0
1.0 125 -39 0
1.0 120 122 0
1.0 133 -30 0
1.0 67 65 0
1.0 -87 138 0
1.0 3 75 0
1.0 -49 -9 0
1.0 96 -56 0
1.0 95 -58 0
1.0 -40 99 0
1.0 128 98 0
1.0 -22 -72 0
1.0 69 -50 0
1.0 -125 46 0
1.0 -54 62 0
1.0 -118 -25 0
1.0 83 -17 0
1.0 115 -92 0
1.0 49 38 0
1.0 109 117 0
1.0 -26 65 0
1.0 110 87 0
1.0 9 -13 0
1.0 38 -119 0
1.0 -136 -65 0
1.0 -16 117 0
1.0 -15 -88 0
1.0 64 -32 0
1.0 -96 130 0
1.0 -76 -3 0
1.0 -15 119 0
1.0 97 -130 0
1.0 55 135 0
1.0 -112 -134 0
1.0 -82 127 0
1.0 -19 -128 0
1.0 117 55 0
1.0 -57 -128 0
1.0 -107 70 0
1.0 59 -17 0
1.0 11 -77 0
1.0 -71 36 0
1.0 23 75 0
1.0 63 113 0
1.0 -28 -55 0
1.0 42 90 0
1.0 -19 -140 0
1.0 16 87 0
1.0 24 -94 0
1.0 -130 115 0
1.0 50 -124 0
1.0 97 -69 0
1.0 123 103 0
1.0 53 -84 0
1.0 84 -104 0
1.0 -51 -61 0
1.0 14 133 0
1.0 108 133 0
1.0 -117 -69 0
1.0 138 -139 0
1.0 102 126 0
1.0 -70 38 0
1.0 -2 95 0
1.0 -16 97 0
1.0 90 13 0
1.0 -5 -48 0
1.0 117 -61 0
1.0 -59 114 0
1.0 100 -34 0
1.0 -120 -42 0
1.0 -14 -52 0
1.0 37 119 0
1.0 11 116 0
1.0 49 -36 0
1.0 91 10 0
1.0 104 48 0
1.0 82 53 0
1.0 -94 -59 0
1.0 -110 84 0
1.0 63 -136 0
1.0 -112 108 0
1.0 -3 -27 0
1.0 37 -16 0
1.0 63 41 0
1.0 94 123 0
1.0 41 59 0
1.0 3 91 0
1.0 -86 72 0
1.0 -39 130 0
1.0 -16 65 0
1.0 80 13 0
1.0 54 114 0
1.0 96 -70 0
1.0 129 -68 0
1.0 18 -25 0
1.0 96 -54 0
1.0 43 97 0
1.0 -22 -32 0
1.0 -44 -22 0
